(declare-fun v13 ()Bool         )
(declare-fun bvlambda_14_ () (_ BitVec 11))
(declare-fun bvlambda_15_ () (_ BitVec 2))
(declare-fun bvlambda_16_ () (_ BitVec 2))
(declare-fun bvlambda_26_ ()Bool         )
(declare-fun bvlambda_27_ () (_ BitVec 6))
(declare-fun bvlambda_54_ ()Bool         )
(declare-fun a168 () (Array (_ BitVec 1) (_ BitVec 2)))
(assert
(let (($e1 false    ))
(let (($e22 (_ bv65532 16)))
(let (($e23 (_ bv0 8)))
(let (($e211 (select a168 true       )))
(let (($e212                $e22                                     ))
(let (($e213 ((_ extract 10 9) $e212)))
(let (($e216                    $e213     ))
(let (($e217 (store a168 true        $e216)))
(let (($e218 (select $e217 bvlambda_54_)))
(let (($e228 (   extract      $e218)))
(let (($e229               $e228                ))
(let (($e230 (concat $e229 $e229)))
(let (($e231      (bvult $e230 $e211)         ))
(let (($e232        $e231       ))
(let (($e233               $e232                ))
(let (($e237                     $e233  ))
(let (($e255                      bvlambda_14_ ))
(let (($e256 (concat $e255 bvlambda_15_)))
(let (($e257 (concat $e256 bvlambda_16_)))
(let (($e258        $e257       ))
(let (($e276                      $e237 ))
(let (($e302                             $e276  ))
(let (($e314               $e302          ))
(let (($e442 (concat $e23 bvlambda_26_)))
(let (($e443 (concat $e442 bvlambda_27_)))
(let (($e447        $e258       ))
(let (($e448                   $e447 ))
(let (($e449      (bvult $e448 $e443)         ))
(let (($e451                             $e449  ))
(let (($e480              $e451 ))
(let (($e481                    $e480 ))
(let (($e482               $e481                ))
(let (($e489 (store a168 $e1 bvlambda_15_)))
(let (($e493 (select $e489 v13)))
(let (($e499 (   extract      $e493)))
(let (($e500               $e499                ))
(let (($e501        $e500       ))
(let (($e502                             $e501  ))
(let (($e503 (bvand $e502 $e482)))
(let (($e504               $e503                ))
(let (($e534                     $e504  ))
(let (($e535        $e534               ))
(let (($e575              $e535 ))
                  (= $e575 $e314)
                                                                                                                                                                                                                                                                                                                                                                                                                                                                                                                                                                                                                                                                                                                                                                                                                                                                                                                                                                                                                                                                                                                                                                                                                                                                                                                                                                                                                                                                                                                                                                                                                         )                                       ))                             ))))))     )   )      )))                            ) )))   ))                                                                                                                               )           )                         )                 ))))                 )   ))))))         )))  )))                                                                                                                      ))                    ))
